9	6	4		
0	1	J1		
1	2	J1		
3	4	J2		
4	5	J2		
6	7	J3		
7	8	J3		
2	0	17	1	25
2	3	40	1	30
2	3	150	2	160
2	0	30	2	50
2	3	55	1	66
2	3	78	2	65
2	0	56	1	62
2	1	70	2	80
2	3	90	2	100
0	18	6	6
18	0	13	19
6	13	0	11
6	19	11	0
